Problem:    
Rows:       1
Columns:    134 (134 integer, 134 binary)
Non-zeros:  134
Status:     INTEGER OPTIMAL
Objective:  score = 4217 (MAXimum)

   No.   Row name        Activity     Lower bound   Upper bound
------ ------------    ------------- ------------- -------------
     1 length                      4                           4 

   No. Column name       Activity     Lower bound   Upper bound
------ ------------    ------------- ------------- -------------
     1 s0           *              0             0             1 
     2 s1           *              0             0             1 
     3 s2           *              0             0             1 
     4 s3           *              0             0             1 
     5 s4           *              0             0             1 
     6 s5           *              0             0             1 
     7 s6           *              0             0             1 
     8 s7           *              0             0             1 
     9 s8           *              0             0             1 
    10 s9           *              0             0             1 
    11 s10          *              0             0             1 
    12 s11          *              0             0             1 
    13 s12          *              0             0             1 
    14 s13          *              0             0             1 
    15 s14          *              0             0             1 
    16 s15          *              0             0             1 
    17 s16          *              0             0             1 
    18 s17          *              0             0             1 
    19 s18          *              0             0             1 
    20 s19          *              0             0             1 
    21 s20          *              0             0             1 
    22 s21          *              0             0             1 
    23 s22          *              0             0             1 
    24 s23          *              0             0             1 
    25 s24          *              0             0             1 
    26 s25          *              0             0             1 
    27 s26          *              0             0             1 
    28 s27          *              0             0             1 
    29 s28          *              0             0             1 
    30 s29          *              0             0             1 
    31 s30          *              0             0             1 
    32 s31          *              0             0             1 
    33 s32          *              0             0             1 
    34 s33          *              0             0             1 
    35 s34          *              0             0             1 
    36 s35          *              0             0             1 
    37 s36          *              0             0             1 
    38 s37          *              0             0             1 
    39 s38          *              1             0             1 
    40 s39          *              0             0             1 
    41 s40          *              0             0             1 
    42 s41          *              0             0             1 
    43 s42          *              0             0             1 
    44 s43          *              0             0             1 
    45 s44          *              0             0             1 
    46 s45          *              0             0             1 
    47 s46          *              0             0             1 
    48 s47          *              0             0             1 
    49 s48          *              0             0             1 
    50 s49          *              0             0             1 
    51 s50          *              0             0             1 
    52 s51          *              0             0             1 
    53 s52          *              0             0             1 
    54 s53          *              0             0             1 
    55 s54          *              0             0             1 
    56 s55          *              0             0             1 
    57 s56          *              0             0             1 
    58 s57          *              0             0             1 
    59 s58          *              0             0             1 
    60 s59          *              0             0             1 
    61 s60          *              0             0             1 
    62 s61          *              0             0             1 
    63 s62          *              0             0             1 
    64 s63          *              0             0             1 
    65 s64          *              0             0             1 
    66 s65          *              0             0             1 
    67 s66          *              0             0             1 
    68 s67          *              0             0             1 
    69 s68          *              1             0             1 
    70 s69          *              0             0             1 
    71 s70          *              0             0             1 
    72 s71          *              0             0             1 
    73 s72          *              0             0             1 
    74 s73          *              0             0             1 
    75 s74          *              0             0             1 
    76 s75          *              0             0             1 
    77 s76          *              0             0             1 
    78 s77          *              0             0             1 
    79 s78          *              0             0             1 
    80 s79          *              0             0             1 
    81 s80          *              0             0             1 
    82 s81          *              0             0             1 
    83 s82          *              0             0             1 
    84 s83          *              0             0             1 
    85 s84          *              0             0             1 
    86 s85          *              0             0             1 
    87 s86          *              0             0             1 
    88 s87          *              0             0             1 
    89 s88          *              0             0             1 
    90 s89          *              0             0             1 
    91 s90          *              0             0             1 
    92 s91          *              0             0             1 
    93 s92          *              0             0             1 
    94 s93          *              0             0             1 
    95 s94          *              0             0             1 
    96 s95          *              0             0             1 
    97 s96          *              0             0             1 
    98 s97          *              0             0             1 
    99 s98          *              0             0             1 
   100 s99          *              0             0             1 
   101 s100         *              0             0             1 
   102 s101         *              0             0             1 
   103 s102         *              0             0             1 
   104 s103         *              0             0             1 
   105 s104         *              0             0             1 
   106 s105         *              0             0             1 
   107 s106         *              0             0             1 
   108 s107         *              0             0             1 
   109 s108         *              0             0             1 
   110 s109         *              0             0             1 
   111 s110         *              0             0             1 
   112 s111         *              0             0             1 
   113 s112         *              0             0             1 
   114 s113         *              0             0             1 
   115 s114         *              0             0             1 
   116 s115         *              0             0             1 
   117 s116         *              0             0             1 
   118 s117         *              0             0             1 
   119 s118         *              0             0             1 
   120 s119         *              0             0             1 
   121 s120         *              0             0             1 
   122 s121         *              0             0             1 
   123 s122         *              0             0             1 
   124 s123         *              0             0             1 
   125 s124         *              0             0             1 
   126 s125         *              1             0             1 
   127 s126         *              0             0             1 
   128 s127         *              0             0             1 
   129 s128         *              0             0             1 
   130 s129         *              0             0             1 
   131 s130         *              0             0             1 
   132 s131         *              0             0             1 
   133 s132         *              1             0             1 
   134 s133         *              0             0             1 

Integer feasibility conditions:

KKT.PE: max.abs.err = 0.00e+00 on row 0
        max.rel.err = 0.00e+00 on row 0
        High quality

KKT.PB: max.abs.err = 0.00e+00 on row 0
        max.rel.err = 0.00e+00 on row 0
        High quality

End of output
